903869
68,225,151,125,113,213,45,124,226,18,133,193,96,7,14,137,2,184,188,15,59,136,143,25,106,195,204,74,33,49,93,228,132,154,111,26,168,39,80,129,77,35,0,161,134,82,73,156,206,38,42,30,198,97,41,159,112,208,72,217,69,85,118,194,180,187,123,135,205,192,28,75,142,163,153,64,197,199,9,190,121,176,50,177,126,146,66,162,207,200,211,103,32,216,20,3,89,185,170,149,169,141,108,227,87,152,1,114,203,171,167,51,78,94,83,166,84,172,130,147,122,24,60,181,148,201,55,17,53,174,91,52,99,215,104,98,189,23,65,218,140,105,127,40,221,76,120,179,157,81,131,79,56,173,164,29,63,144,165,100,160,115,183,95,90,4,43,219,119,109,13,196,10,138,57,58,220,92,212,44,229,102,186,11,145,128,223,37,202,5,16,46,110,47,224,12,175,222,155,210,67,8,178,36,27,150,107,34,86,61,101,54,214,191,88,21,116,19,182,209,6,71,62,70,139,48,117,31,158,22,68